sat
( (x_init 2)
  (y_init 4)
  (z_init 2)
  (c_0 (- 4))
  (c_1 2)
  (c_2 4)
  (c_3 2)
  (c_4 (- 2))
  (c_5 0)
  (c_6 1)
  (c_7 (- 1))
  (c_8 (- 1))
  (c_9 0)
  (c_10 0)
  (c_11 1)
  (c_12 0)
  (c_13 1)
  (c_14 0)
  (c_15 (- 1)) )
